%%MatrixMarket matrix coordinate integer general
%
57 90 3464
1 1 18
2 1 15
3 1 10
4 1 13
5 1 17
6 1 11
7 1 18
8 1 15
15 1 1
19 1 1
20 1 1
25 1 3
26 1 1
27 1 1
28 1 1
29 1 4
30 1 3
32 1 1
33 1 1
34 1 2
35 1 4
36 1 2
37 1 4
38 1 2
39 1 2
40 1 2
41 1 3
42 1 5
43 1 5
44 1 5
45 1 3
46 1 2
47 1 3
48 1 3
49 1 3
51 1 2
52 1 1
53 1 7
57 1 1
1 2 16
2 2 15
3 2 10
4 2 7
5 2 19
6 2 10
7 2 11
8 2 14
11 2 1
14 2 1
22 2 1
25 2 3
26 2 4
27 2 3
28 2 2
29 2 3
30 2 3
31 2 2
32 2 1
33 2 2
34 2 2
35 2 1
36 2 1
37 2 1
38 2 1
39 2 1
40 2 1
41 2 3
42 2 3
43 2 1
44 2 1
45 2 2
46 2 6
47 2 4
48 2 4
49 2 4
50 2 2
51 2 3
52 2 3
53 2 3
54 2 2
57 2 1
1 3 19
2 3 15
3 3 11
4 3 11
5 3 13
6 3 17
7 3 13
8 3 10
13 3 1
16 3 1
18 3 1
25 3 2
26 3 3
27 3 1
28 3 2
29 3 1
30 3 2
31 3 4
32 3 3
33 3 2
34 3 5
37 3 2
38 3 2
39 3 2
40 3 3
41 3 4
42 3 1
43 3 3
44 3 6
45 3 5
46 3 2
47 3 3
48 3 2
49 3 3
50 3 5
51 3 4
52 3 3
53 3 3
54 3 4
56 3 1
1 4 14
2 4 20
3 4 9
4 4 10
5 4 11
6 4 16
7 4 16
8 4 19
14 4 1
15 4 1
19 4 2
23 4 1
25 4 3
26 4 1
27 4 4
28 4 1
29 4 1
30 4 6
31 4 7
32 4 3
33 4 5
34 4 2
35 4 3
37 4 2
38 4 2
39 4 5
40 4 2
41 4 2
42 4 1
44 4 3
45 4 2
46 4 1
48 4 2
49 4 4
50 4 1
51 4 1
52 4 2
53 4 2
56 4 1
1 5 15
2 5 9
3 5 10
4 5 10
5 5 10
6 5 15
7 5 19
8 5 11
16 5 2
20 5 1
25 5 4
26 5 1
27 5 3
28 5 1
29 5 4
30 5 4
31 5 1
32 5 4
33 5 4
34 5 3
35 5 1
36 5 2
37 5 2
38 5 2
39 5 1
40 5 3
41 5 4
42 5 4
43 5 4
44 5 5
45 5 3
46 5 2
47 5 2
48 5 2
49 5 2
50 5 2
51 5 4
52 5 4
53 5 2
54 5 2
1 6 16
2 6 7
3 6 13
4 6 16
5 6 16
6 6 15
7 6 12
8 6 20
16 6 1
25 6 2
26 6 2
28 6 1
29 6 6
30 6 3
32 6 1
33 6 2
34 6 5
35 6 5
36 6 2
37 6 1
38 6 5
39 6 3
40 6 1
41 6 1
42 6 3
43 6 1
44 6 2
45 6 3
46 6 4
47 6 3
48 6 3
49 6 2
50 6 4
51 6 2
52 6 6
53 6 2
54 6 3
1 7 15
2 7 11
3 7 16
4 7 16
5 7 17
6 7 11
7 7 6
8 7 7
25 7 1
27 7 4
28 7 3
29 7 4
30 7 3
31 7 2
32 7 1
33 7 3
34 7 3
36 7 2
37 7 2
38 7 5
39 7 3
40 7 5
41 7 3
42 7 3
43 7 3
44 7 2
45 7 3
46 7 2
47 7 4
48 7 2
49 7 6
50 7 3
51 7 3
52 7 4
53 7 7
54 7 2
1 8 18
2 8 11
3 8 14
4 8 9
5 8 17
6 8 10
7 8 15
8 8 17
10 8 1
11 8 1
25 8 1
26 8 2
27 8 1
28 8 2
29 8 3
30 8 7
31 8 1
32 8 1
33 8 3
34 8 1
35 8 2
36 8 2
37 8 5
38 8 5
39 8 3
40 8 1
41 8 3
42 8 4
44 8 1
45 8 3
46 8 1
47 8 2
48 8 2
49 8 3
50 8 3
51 8 4
52 8 3
53 8 3
54 8 1
57 8 1
1 9 15
2 9 12
3 9 16
4 9 20
5 9 8
6 9 9
7 9 14
8 9 11
25 9 5
26 9 1
27 9 2
28 9 2
29 9 3
30 9 7
31 9 3
32 9 1
33 9 3
34 9 4
35 9 5
36 9 2
37 9 1
38 9 1
39 9 3
40 9 1
41 9 2
42 9 1
43 9 1
45 9 3
46 9 3
47 9 1
48 9 1
49 9 6
50 9 1
51 9 1
52 9 2
53 9 2
54 9 2
55 9 1
1 10 20
2 10 14
3 10 11
4 10 14
5 10 16
6 10 12
7 10 7
8 10 13
16 10 1
17 10 1
24 10 1
25 10 1
26 10 4
27 10 4
29 10 1
30 10 3
31 10 3
33 10 2
34 10 4
35 10 4
36 10 3
37 10 4
39 10 1
40 10 4
41 10 1
42 10 1
43 10 3
44 10 3
45 10 3
46 10 2
47 10 2
48 10 5
49 10 1
50 10 1
51 10 2
52 10 4
53 10 1
54 10 1
1 11 14
2 11 12
3 11 13
4 11 9
5 11 18
6 11 20
7 11 14
8 11 10
10 11 1
16 11 1
18 11 1
25 11 6
27 11 2
28 11 3
29 11 2
30 11 3
31 11 3
32 11 1
33 11 3
35 11 3
36 11 1
37 11 3
38 11 2
39 11 4
40 11 2
41 11 3
42 11 2
43 11 3
44 11 4
45 11 2
46 11 1
48 11 2
49 11 2
50 11 3
51 11 2
52 11 4
53 11 1
54 11 2
56 11 1
1 12 12
2 12 19
3 12 10
4 12 15
5 12 23
6 12 12
7 12 20
8 12 17
19 12 1
25 12 5
26 12 3
27 12 3
28 12 2
29 12 1
30 12 2
31 12 1
32 12 3
33 12 1
34 12 7
35 12 2
36 12 1
37 12 1
38 12 5
39 12 2
40 12 2
41 12 3
42 12 2
43 12 1
44 12 3
45 12 4
47 12 2
48 12 1
49 12 4
50 12 3
51 12 3
52 12 3
53 12 2
54 12 3
55 12 1
57 12 1
1 13 5
2 13 8
3 13 14
4 13 15
5 13 11
6 13 15
7 13 7
8 13 20
13 13 1
15 13 1
20 13 1
22 13 1
25 13 2
26 13 4
27 13 3
28 13 3
29 13 3
30 13 2
31 13 1
32 13 1
34 13 3
35 13 3
36 13 1
37 13 3
38 13 1
39 13 4
40 13 4
41 13 2
42 13 7
43 13 4
44 13 2
45 13 2
46 13 3
47 13 2
48 13 2
49 13 5
50 13 1
51 13 4
52 13 2
53 13 5
54 13 3
1 14 18
2 14 13
3 14 20
4 14 14
5 14 16
6 14 13
7 14 10
8 14 16
25 14 2
26 14 2
27 14 5
28 14 2
29 14 1
30 14 2
31 14 1
32 14 6
33 14 2
34 14 1
35 14 3
36 14 2
37 14 1
39 14 1
40 14 6
41 14 1
42 14 2
43 14 1
45 14 2
46 14 1
47 14 2
49 14 4
50 14 1
51 14 3
52 14 2
53 14 2
54 14 3
1 15 16
2 15 14
3 15 3
4 15 10
5 15 18
6 15 14
7 15 17
8 15 12
16 15 1
25 15 3
26 15 1
27 15 2
28 15 3
29 15 2
30 15 1
31 15 1
32 15 1
33 15 2
34 15 2
35 15 1
36 15 2
37 15 4
38 15 3
39 15 2
40 15 2
41 15 1
42 15 3
43 15 4
44 15 5
45 15 3
46 15 1
47 15 3
48 15 4
49 15 6
51 15 4
52 15 1
53 15 2
54 15 2
57 15 1
1 16 15
2 16 18
3 16 12
4 16 16
5 16 16
6 16 18
7 16 14
8 16 18
10 16 1
12 16 1
18 16 1
26 16 7
27 16 2
28 16 3
29 16 3
30 16 2
31 16 3
32 16 5
33 16 3
34 16 3
35 16 4
36 16 4
37 16 2
38 16 2
39 16 1
40 16 4
41 16 1
42 16 3
43 16 1
44 16 3
45 16 2
46 16 1
47 16 4
49 16 4
51 16 2
52 16 1
53 16 3
54 16 3
57 16 1
1 17 13
2 17 21
3 17 19
4 17 11
5 17 13
6 17 12
7 17 12
8 17 15
9 17 1
21 17 1
25 17 4
26 17 2
27 17 4
28 17 2
29 17 2
30 17 4
31 17 2
32 17 4
33 17 5
34 17 3
35 17 4
36 17 2
37 17 3
38 17 2
39 17 3
40 17 2
41 17 1
42 17 3
43 17 2
44 17 4
45 17 4
46 17 5
49 17 2
50 17 1
51 17 1
52 17 6
53 17 3
54 17 2
56 17 1
1 18 12
2 18 11
3 18 14
4 18 16
5 18 11
6 18 5
7 18 15
8 18 11
15 18 1
20 18 1
25 18 1
26 18 4
27 18 2
28 18 1
29 18 2
30 18 3
31 18 2
32 18 3
33 18 3
34 18 3
35 18 2
36 18 1
37 18 2
38 18 2
39 18 5
40 18 4
41 18 1
42 18 2
43 18 1
45 18 3
46 18 2
47 18 1
48 18 2
49 18 6
50 18 2
51 18 3
52 18 2
53 18 1
54 18 1
1 19 14
2 19 22
3 19 10
4 19 14
5 19 16
6 19 19
7 19 15
8 19 14
14 19 1
22 19 1
25 19 5
26 19 1
27 19 1
28 19 1
29 19 2
30 19 2
31 19 2
32 19 1
33 19 1
34 19 2
35 19 3
36 19 2
37 19 1
38 19 2
39 19 2
40 19 5
41 19 3
42 19 4
43 19 3
44 19 1
45 19 2
46 19 5
47 19 5
48 19 2
49 19 1
50 19 3
52 19 2
53 19 2
54 19 4
57 19 1
1 20 15
2 20 12
3 20 12
4 20 17
5 20 12
6 20 15
7 20 18
8 20 16
11 20 1
12 20 1
23 20 1
25 20 2
26 20 2
27 20 3
28 20 3
30 20 4
31 20 1
32 20 3
33 20 2
34 20 2
35 20 4
36 20 2
37 20 1
39 20 1
40 20 2
41 20 1
42 20 2
43 20 4
44 20 2
45 20 3
46 20 2
47 20 1
48 20 4
49 20 5
50 20 3
51 20 2
52 20 3
53 20 1
54 20 2
57 20 1
1 21 15
2 21 23
3 21 9
4 21 17
5 21 12
6 21 19
7 21 11
8 21 15
11 21 1
12 21 1
15 21 1
16 21 1
23 21 1
25 21 4
26 21 2
27 21 1
28 21 1
29 21 2
30 21 2
31 21 2
32 21 3
33 21 3
34 21 2
35 21 4
36 21 2
37 21 8
38 21 2
39 21 1
40 21 2
41 21 3
42 21 1
43 21 2
44 21 3
45 21 6
46 21 2
47 21 2
48 21 3
49 21 6
50 21 3
51 21 3
52 21 2
53 21 1
54 21 1
56 21 1
1 22 14
2 22 14
3 22 14
4 22 17
5 22 19
6 22 10
7 22 19
8 22 10
11 22 1
18 22 1
19 22 1
21 22 1
25 22 5
26 22 5
27 22 4
28 22 3
29 22 1
30 22 2
31 22 4
32 22 4
33 22 2
34 22 2
35 22 4
36 22 1
37 22 5
38 22 6
39 22 2
40 22 1
41 22 5
42 22 3
43 22 1
44 22 3
45 22 3
46 22 1
47 22 1
49 22 2
50 22 4
51 22 3
52 22 5
53 22 1
54 22 5
56 22 1
1 23 16
2 23 20
3 23 19
4 23 21
5 23 11
6 23 9
7 23 11
8 23 12
23 23 1
25 23 4
26 23 2
27 23 1
28 23 1
29 23 3
30 23 2
31 23 2
32 23 4
33 23 6
35 23 1
36 23 2
37 23 3
38 23 5
39 23 5
40 23 4
41 23 2
42 23 2
43 23 4
44 23 3
45 23 2
46 23 4
47 23 4
48 23 2
49 23 4
51 23 5
52 23 3
53 23 3
54 23 3
1 24 13
2 24 18
3 24 19
4 24 17
5 24 14
6 24 12
7 24 15
8 24 15
14 24 1
26 24 4
27 24 4
28 24 2
29 24 4
30 24 2
31 24 3
32 24 1
33 24 4
34 24 3
37 24 2
38 24 2
39 24 3
40 24 3
42 24 2
43 24 4
44 24 2
45 24 3
46 24 2
47 24 2
48 24 4
49 24 8
50 24 3
51 24 2
52 24 3
54 24 2
55 24 1
1 25 11
2 25 18
3 25 20
4 25 21
5 25 9
6 25 21
7 25 12
8 25 12
21 25 1
25 25 1
26 25 3
27 25 3
28 25 1
29 25 3
30 25 1
33 25 3
34 25 3
35 25 2
36 25 1
38 25 3
39 25 4
40 25 4
41 25 3
42 25 2
43 25 1
44 25 3
46 25 4
47 25 2
49 25 2
51 25 2
52 25 3
53 25 4
54 25 3
55 25 1
1 26 18
2 26 16
3 26 10
4 26 15
5 26 15
6 26 15
7 26 23
8 26 17
19 26 2
22 26 1
25 26 1
26 26 1
27 26 1
28 26 1
29 26 2
30 26 1
31 26 3
32 26 2
33 26 4
34 26 1
36 26 6
37 26 3
38 26 2
39 26 3
40 26 4
41 26 1
43 26 3
44 26 3
45 26 6
46 26 3
47 26 3
48 26 2
49 26 5
50 26 4
51 26 7
52 26 3
53 26 1
54 26 1
1 27 14
2 27 6
3 27 16
4 27 13
5 27 10
6 27 15
7 27 9
8 27 15
10 27 1
14 27 1
16 27 1
25 27 2
26 27 1
28 27 3
29 27 1
30 27 2
31 27 3
32 27 3
33 27 1
34 27 1
35 27 2
37 27 4
38 27 7
40 27 4
41 27 3
42 27 3
43 27 3
44 27 2
45 27 7
46 27 6
47 27 5
48 27 6
49 27 2
50 27 4
51 27 3
52 27 3
53 27 3
1 28 14
2 28 16
3 28 12
4 28 21
5 28 18
6 28 19
7 28 13
8 28 11
19 28 1
25 28 5
26 28 6
27 28 2
28 28 1
29 28 3
30 28 1
31 28 1
32 28 4
33 28 1
34 28 4
35 28 2
36 28 3
37 28 3
38 28 5
39 28 1
40 28 4
41 28 1
42 28 1
43 28 4
44 28 4
45 28 2
46 28 4
47 28 2
48 28 3
49 28 2
50 28 6
51 28 1
52 28 3
53 28 5
54 28 2
1 29 14
2 29 15
3 29 17
4 29 12
5 29 15
6 29 4
7 29 14
8 29 10
14 29 1
16 29 1
18 29 1
25 29 2
26 29 5
27 29 1
28 29 2
29 29 3
30 29 1
31 29 1
32 29 3
33 29 3
36 29 1
38 29 4
39 29 2
40 29 2
41 29 5
42 29 2
43 29 2
44 29 6
45 29 2
46 29 6
47 29 3
48 29 2
49 29 1
50 29 2
51 29 3
52 29 4
53 29 1
1 30 19
2 30 15
3 30 12
4 30 10
5 30 19
6 30 14
7 30 15
8 30 14
15 30 1
18 30 1
21 30 1
26 30 6
28 30 3
29 30 3
30 30 2
31 30 2
32 30 4
33 30 3
34 30 6
35 30 3
36 30 4
37 30 1
38 30 4
40 30 1
41 30 4
42 30 3
43 30 4
44 30 6
45 30 3
46 30 4
47 30 2
49 30 7
50 30 1
51 30 4
52 30 2
53 30 2
54 30 1
55 30 2
5 31 1
9 31 18
10 31 12
11 31 13
12 31 13
13 31 16
14 31 15
15 31 14
16 31 17
25 31 1
26 31 6
27 31 1
28 31 5
29 31 4
30 31 2
31 31 1
32 31 2
33 31 4
35 31 2
36 31 3
37 31 3
38 31 3
40 31 1
41 31 6
42 31 3
43 31 2
44 31 2
45 31 2
46 31 3
47 31 4
48 31 2
49 31 3
50 31 4
51 31 3
52 31 1
53 31 2
54 31 1
55 31 1
3 32 1
9 32 7
10 32 21
11 32 10
12 32 7
13 32 11
14 32 16
15 32 14
16 32 9
18 32 1
25 32 2
26 32 3
27 32 7
28 32 2
29 32 3
30 32 3
31 32 1
32 32 1
33 32 3
34 32 2
35 32 2
36 32 2
37 32 1
38 32 3
39 32 4
40 32 2
41 32 1
43 32 6
44 32 2
45 32 4
46 32 1
47 32 5
48 32 3
49 32 2
50 32 3
51 32 6
52 32 3
53 32 2
54 32 4
9 33 16
10 33 13
11 33 15
12 33 15
13 33 15
14 33 18
15 33 14
16 33 15
19 33 1
20 33 1
22 33 1
26 33 2
27 33 2
28 33 2
29 33 3
30 33 6
31 33 2
32 33 3
33 33 4
34 33 1
35 33 2
36 33 5
37 33 1
38 33 4
39 33 2
40 33 2
41 33 2
42 33 2
43 33 6
44 33 3
45 33 4
47 33 4
48 33 3
49 33 3
50 33 3
51 33 3
52 33 4
53 33 4
54 33 2
55 33 1
56 33 1
9 34 22
10 34 13
11 34 13
12 34 15
13 34 12
14 34 12
15 34 13
16 34 11
18 34 1
25 34 4
26 34 6
27 34 1
28 34 1
29 34 2
30 34 5
31 34 2
32 34 2
33 34 3
34 34 3
35 34 2
36 34 1
37 34 3
38 34 3
39 34 1
41 34 2
42 34 3
43 34 2
44 34 1
45 34 5
46 34 4
47 34 3
48 34 3
49 34 4
51 34 1
52 34 1
53 34 3
54 34 1
56 34 1
57 34 1
6 35 2
8 35 1
9 35 15
10 35 4
11 35 10
12 35 14
13 35 18
14 35 10
15 35 17
16 35 20
18 35 1
20 35 1
25 35 3
26 35 2
27 35 2
28 35 1
29 35 1
30 35 2
31 35 5
32 35 3
33 35 4
34 35 5
36 35 2
37 35 2
38 35 3
39 35 2
40 35 3
41 35 4
42 35 5
44 35 2
45 35 1
46 35 1
47 35 4
48 35 5
49 35 3
50 35 1
52 35 3
53 35 6
54 35 4
57 35 1
9 36 13
10 36 10
11 36 9
12 36 13
13 36 18
14 36 20
15 36 11
16 36 18
25 36 2
26 36 1
27 36 2
28 36 3
29 36 1
30 36 1
31 36 1
32 36 3
33 36 3
34 36 2
35 36 2
36 36 6
37 36 2
38 36 1
39 36 3
40 36 3
41 36 2
42 36 3
43 36 4
44 36 2
45 36 2
46 36 3
48 36 1
49 36 3
50 36 3
51 36 2
52 36 2
53 36 2
54 36 3
56 36 1
1 37 1
4 37 1
7 37 1
8 37 1
9 37 9
10 37 20
11 37 8
12 37 18
13 37 12
14 37 18
15 37 13
16 37 15
25 37 3
26 37 1
27 37 1
28 37 4
30 37 1
31 37 4
32 37 2
33 37 5
34 37 2
35 37 2
36 37 1
37 37 4
38 37 1
39 37 3
40 37 1
41 37 3
42 37 2
43 37 1
44 37 3
48 37 4
49 37 1
50 37 1
51 37 4
52 37 1
53 37 2
54 37 3
3 38 1
6 38 1
9 38 10
10 38 17
11 38 17
12 38 9
13 38 29
14 38 11
15 38 8
16 38 7
22 38 1
25 38 2
26 38 2
27 38 3
28 38 2
29 38 2
30 38 2
31 38 2
32 38 1
33 38 2
34 38 6
35 38 3
36 38 1
37 38 5
38 38 2
39 38 5
40 38 1
41 38 2
42 38 3
43 38 3
44 38 3
45 38 5
47 38 2
49 38 1
50 38 2
51 38 2
52 38 4
53 38 1
54 38 3
56 38 1
6 39 2
9 39 14
10 39 11
11 39 19
12 39 12
13 39 14
14 39 14
15 39 13
16 39 13
17 39 1
18 39 1
21 39 1
25 39 2
26 39 4
27 39 7
29 39 1
30 39 2
31 39 2
32 39 2
35 39 2
36 39 1
37 39 2
38 39 3
39 39 4
40 39 2
41 39 4
42 39 1
43 39 1
44 39 2
45 39 6
46 39 6
47 39 5
48 39 2
49 39 5
50 39 6
52 39 1
54 39 2
55 39 2
57 39 1
1 40 1
9 40 15
10 40 17
11 40 15
12 40 11
13 40 18
14 40 10
15 40 19
16 40 15
22 40 1
25 40 1
26 40 3
27 40 3
28 40 5
29 40 2
30 40 1
31 40 3
32 40 2
33 40 2
34 40 1
35 40 2
36 40 2
37 40 3
38 40 1
39 40 2
40 40 1
41 40 2
42 40 2
43 40 5
44 40 3
46 40 3
47 40 3
48 40 1
49 40 3
50 40 3
51 40 2
52 40 4
53 40 2
54 40 2
57 40 1
9 41 14
10 41 15
11 41 15
12 41 16
13 41 21
14 41 18
15 41 16
16 41 14
18 41 1
25 41 1
26 41 2
28 41 4
29 41 1
30 41 1
31 41 3
32 41 2
33 41 2
34 41 1
35 41 2
36 41 2
37 41 2
38 41 1
39 41 1
40 41 2
41 41 3
42 41 5
43 41 3
44 41 4
45 41 3
46 41 4
47 41 3
49 41 1
52 41 1
53 41 2
54 41 4
4 42 1
9 42 15
10 42 11
11 42 15
12 42 10
13 42 14
14 42 8
15 42 14
16 42 12
18 42 1
20 42 2
24 42 1
25 42 3
26 42 2
27 42 3
28 42 4
29 42 1
30 42 1
31 42 3
32 42 2
33 42 1
34 42 3
35 42 1
36 42 9
37 42 2
38 42 3
39 42 3
40 42 6
41 42 1
42 42 2
43 42 4
44 42 2
45 42 1
46 42 4
47 42 2
49 42 8
51 42 1
52 42 3
53 42 2
54 42 3
56 42 1
1 43 1
2 43 1
9 43 13
10 43 14
11 43 13
12 43 11
13 43 13
14 43 14
15 43 15
16 43 10
25 43 3
26 43 4
27 43 4
28 43 5
29 43 2
30 43 1
32 43 3
34 43 3
35 43 2
36 43 2
37 43 2
40 43 2
41 43 2
42 43 4
43 43 2
44 43 2
45 43 3
46 43 3
47 43 2
48 43 3
49 43 3
50 43 3
51 43 2
53 43 3
54 43 1
56 43 1
2 44 2
3 44 1
9 44 11
10 44 14
11 44 18
12 44 15
13 44 13
14 44 15
15 44 20
16 44 13
19 44 1
20 44 1
25 44 3
26 44 4
27 44 5
28 44 2
29 44 1
30 44 1
31 44 2
32 44 1
33 44 1
34 44 1
35 44 3
36 44 6
37 44 2
38 44 2
39 44 1
40 44 2
41 44 4
42 44 5
43 44 5
44 44 1
45 44 2
46 44 1
47 44 1
48 44 3
49 44 3
50 44 1
51 44 2
52 44 1
53 44 3
54 44 4
57 44 1
6 45 1
9 45 11
10 45 16
11 45 12
12 45 18
13 45 12
14 45 15
15 45 11
16 45 16
20 45 1
25 45 2
26 45 4
27 45 2
28 45 2
29 45 1
31 45 4
32 45 1
33 45 2
34 45 5
35 45 1
36 45 1
37 45 2
38 45 5
39 45 2
40 45 2
41 45 1
42 45 2
43 45 3
44 45 5
45 45 2
46 45 2
47 45 1
48 45 7
49 45 2
50 45 2
51 45 2
53 45 2
54 45 3
56 45 1
57 45 2
3 46 1
9 46 16
10 46 13
11 46 13
12 46 13
13 46 19
14 46 10
15 46 16
16 46 14
18 46 1
20 46 1
25 46 1
26 46 2
27 46 5
28 46 1
29 46 2
30 46 3
31 46 2
32 46 2
33 46 3
34 46 4
35 46 3
37 46 4
38 46 1
39 46 6
40 46 3
41 46 2
42 46 2
44 46 3
45 46 3
46 46 5
47 46 1
48 46 4
49 46 2
50 46 3
51 46 3
52 46 4
53 46 7
54 46 2
55 46 1
3 47 1
9 47 11
10 47 20
11 47 19
12 47 12
13 47 18
14 47 9
15 47 13
16 47 16
19 47 1
24 47 2
25 47 2
26 47 2
27 47 5
28 47 2
29 47 2
30 47 5
31 47 1
32 47 1
33 47 4
34 47 3
35 47 4
36 47 4
37 47 1
38 47 3
39 47 8
40 47 5
41 47 6
42 47 2
43 47 2
45 47 5
46 47 3
47 47 1
48 47 2
49 47 1
50 47 5
51 47 3
52 47 1
53 47 1
54 47 3
56 47 1
57 47 2
3 48 1
8 48 1
9 48 17
10 48 12
11 48 19
12 48 10
13 48 13
14 48 21
15 48 14
16 48 14
22 48 1
25 48 2
26 48 2
27 48 3
28 48 2
29 48 3
31 48 2
32 48 2
33 48 6
34 48 1
35 48 1
36 48 2
37 48 3
38 48 1
39 48 3
40 48 4
41 48 4
42 48 3
43 48 3
44 48 1
45 48 2
47 48 3
48 48 1
49 48 5
50 48 6
51 48 4
52 48 1
53 48 1
54 48 1
56 48 1
1 49 1
9 49 11
10 49 15
11 49 20
12 49 25
13 49 15
14 49 20
15 49 19
16 49 16
25 49 2
26 49 1
27 49 2
28 49 3
29 49 1
30 49 1
31 49 2
32 49 3
34 49 3
35 49 6
36 49 3
37 49 7
39 49 2
40 49 1
41 49 4
42 49 2
43 49 2
44 49 1
45 49 2
46 49 1
47 49 3
48 49 2
49 49 4
50 49 2
52 49 2
53 49 2
54 49 6
7 50 1
9 50 9
10 50 9
11 50 15
12 50 13
13 50 10
14 50 15
15 50 13
16 50 23
17 50 1
25 50 3
26 50 4
27 50 2
28 50 1
29 50 1
30 50 2
31 50 1
32 50 1
33 50 2
34 50 4
35 50 1
36 50 3
37 50 2
39 50 2
40 50 2
41 50 3
42 50 2
43 50 3
44 50 3
45 50 1
46 50 2
47 50 2
48 50 2
49 50 5
50 50 2
51 50 5
52 50 6
53 50 2
54 50 1
9 51 14
10 51 15
11 51 15
12 51 17
13 51 7
14 51 9
15 51 13
16 51 15
18 51 1
24 51 1
26 51 3
27 51 1
28 51 2
30 51 2
31 51 3
32 51 4
33 51 3
34 51 3
35 51 6
36 51 1
37 51 7
38 51 1
39 51 4
40 51 2
41 51 3
42 51 1
43 51 3
44 51 2
45 51 2
46 51 1
47 51 2
48 51 2
49 51 2
50 51 5
51 51 2
52 51 2
53 51 4
54 51 4
9 52 12
10 52 19
11 52 12
12 52 17
13 52 23
14 52 23
15 52 13
16 52 15
18 52 1
25 52 1
26 52 1
27 52 4
28 52 2
29 52 2
31 52 1
32 52 4
33 52 1
34 52 3
35 52 2
36 52 3
37 52 3
38 52 2
39 52 4
40 52 2
41 52 1
42 52 4
43 52 2
44 52 2
45 52 2
46 52 4
47 52 2
48 52 4
49 52 4
50 52 1
51 52 3
52 52 4
53 52 2
54 52 2
57 52 2
4 53 2
9 53 9
10 53 16
11 53 13
12 53 21
13 53 12
14 53 11
15 53 19
16 53 14
18 53 1
22 53 1
25 53 1
26 53 4
27 53 2
29 53 4
30 53 1
31 53 2
32 53 1
33 53 1
36 53 4
37 53 1
38 53 4
39 53 2
40 53 3
41 53 3
43 53 2
44 53 3
45 53 2
46 53 4
47 53 5
48 53 4
50 53 4
51 53 1
52 53 2
54 53 1
4 54 1
5 54 1
9 54 16
10 54 9
11 54 15
12 54 13
13 54 9
14 54 15
15 54 14
16 54 20
18 54 1
21 54 1
25 54 3
26 54 1
28 54 4
30 54 1
31 54 4
32 54 3
33 54 3
34 54 3
35 54 3
36 54 2
37 54 1
38 54 3
39 54 3
40 54 2
41 54 3
42 54 1
43 54 2
44 54 8
45 54 2
46 54 1
47 54 1
50 54 6
51 54 1
52 54 1
53 54 4
54 54 4
1 55 1
7 55 1
9 55 10
10 55 9
11 55 11
12 55 17
13 55 16
14 55 11
15 55 9
16 55 16
18 55 1
19 55 1
25 55 3
26 55 2
27 55 3
29 55 1
30 55 4
31 55 2
32 55 4
33 55 2
34 55 3
35 55 4
36 55 1
37 55 2
39 55 5
40 55 1
41 55 2
42 55 3
43 55 4
45 55 2
46 55 6
47 55 4
48 55 3
49 55 1
50 55 3
51 55 5
53 55 2
54 55 1
55 55 1
9 56 16
10 56 4
11 56 18
12 56 11
13 56 17
14 56 13
15 56 13
16 56 13
19 56 1
25 56 3
26 56 4
27 56 2
29 56 5
30 56 3
32 56 4
33 56 4
35 56 1
36 56 5
37 56 2
38 56 1
39 56 3
40 56 1
41 56 2
42 56 2
43 56 5
44 56 4
45 56 2
46 56 5
47 56 3
48 56 4
50 56 3
51 56 1
52 56 5
53 56 1
54 56 3
56 56 1
57 56 1
5 57 1
9 57 13
10 57 7
11 57 18
12 57 10
13 57 22
14 57 12
15 57 13
16 57 16
20 57 1
21 57 1
25 57 4
26 57 2
28 57 2
29 57 3
31 57 1
32 57 3
33 57 5
34 57 3
35 57 2
36 57 3
38 57 4
39 57 5
41 57 1
42 57 2
44 57 3
46 57 1
47 57 2
48 57 2
49 57 1
50 57 3
51 57 2
52 57 3
53 57 2
54 57 2
57 57 1
4 58 1
9 58 19
10 58 12
11 58 20
12 58 12
13 58 9
14 58 12
15 58 21
16 58 9
25 58 1
26 58 4
27 58 4
28 58 4
29 58 1
30 58 2
32 58 3
33 58 3
34 58 2
35 58 8
36 58 5
39 58 2
40 58 2
41 58 2
42 58 1
43 58 1
44 58 3
45 58 1
46 58 4
47 58 4
48 58 2
49 58 6
50 58 2
52 58 2
53 58 1
54 58 4
55 58 1
9 59 9
10 59 13
11 59 9
12 59 17
13 59 19
14 59 12
15 59 18
16 59 21
19 59 1
20 59 1
23 59 1
25 59 1
26 59 2
27 59 3
28 59 2
29 59 3
30 59 4
31 59 3
32 59 1
33 59 1
35 59 8
36 59 1
37 59 5
38 59 6
40 59 1
41 59 4
42 59 2
43 59 2
44 59 3
45 59 1
47 59 6
48 59 2
49 59 1
50 59 4
51 59 3
52 59 2
53 59 3
54 59 1
9 60 11
10 60 12
11 60 18
12 60 12
13 60 12
14 60 15
15 60 16
16 60 11
25 60 4
27 60 1
28 60 4
29 60 3
30 60 4
31 60 2
33 60 4
34 60 4
36 60 3
37 60 4
38 60 4
39 60 3
40 60 2
41 60 1
42 60 1
43 60 3
44 60 4
45 60 1
46 60 2
47 60 2
49 60 2
50 60 4
51 60 2
52 60 4
53 60 3
54 60 1
1 61 1
3 61 2
6 61 1
16 61 1
17 61 10
18 61 14
19 61 15
20 61 11
21 61 15
22 61 16
23 61 12
24 61 17
25 61 5
26 61 2
27 61 3
28 61 4
29 61 3
30 61 1
31 61 4
32 61 1
34 61 3
35 61 1
36 61 4
37 61 4
38 61 2
39 61 4
40 61 5
41 61 1
42 61 2
43 61 3
45 61 3
46 61 3
47 61 3
48 61 1
49 61 5
50 61 4
52 61 1
53 61 3
54 61 2
1 62 1
2 62 1
8 62 1
17 62 19
18 62 16
19 62 18
20 62 19
21 62 18
22 62 15
23 62 12
24 62 10
25 62 2
26 62 1
27 62 2
28 62 2
29 62 4
30 62 2
31 62 4
32 62 2
33 62 1
35 62 5
36 62 2
37 62 1
38 62 2
39 62 3
42 62 4
43 62 2
44 62 4
45 62 2
46 62 3
49 62 2
50 62 3
51 62 3
52 62 1
53 62 1
54 62 1
2 63 1
7 63 1
11 63 1
16 63 1
17 63 10
18 63 15
19 63 17
20 63 14
21 63 19
22 63 12
23 63 18
24 63 9
25 63 1
26 63 3
28 63 3
29 63 7
30 63 1
31 63 2
32 63 6
33 63 4
34 63 4
35 63 4
36 63 2
37 63 3
38 63 2
39 63 1
40 63 4
41 63 2
42 63 5
43 63 5
44 63 3
45 63 4
46 63 1
47 63 2
48 63 3
49 63 5
50 63 1
52 63 3
53 63 4
54 63 1
6 64 1
8 64 1
11 64 1
17 64 12
18 64 16
19 64 16
20 64 10
21 64 18
22 64 13
23 64 9
24 64 16
25 64 2
26 64 3
27 64 5
28 64 1
29 64 3
31 64 4
32 64 4
33 64 4
34 64 2
35 64 5
36 64 1
37 64 1
38 64 1
39 64 2
40 64 3
41 64 1
43 64 3
44 64 3
45 64 1
46 64 1
47 64 1
48 64 1
49 64 1
50 64 3
51 64 4
52 64 2
53 64 2
54 64 4
56 64 3
8 65 1
12 65 1
17 65 9
18 65 19
19 65 13
20 65 22
21 65 20
22 65 10
23 65 14
24 65 11
25 65 1
26 65 1
27 65 4
28 65 3
29 65 4
30 65 2
31 65 4
32 65 2
33 65 4
34 65 2
35 65 5
37 65 2
38 65 2
40 65 1
41 65 5
42 65 2
43 65 2
44 65 2
45 65 2
46 65 1
47 65 2
48 65 2
49 65 3
50 65 5
51 65 4
52 65 1
54 65 3
1 66 2
10 66 1
11 66 1
17 66 13
18 66 19
19 66 16
20 66 11
21 66 19
22 66 12
23 66 13
24 66 11
26 66 2
27 66 3
28 66 4
29 66 3
30 66 2
31 66 4
32 66 1
33 66 3
34 66 2
35 66 6
36 66 2
37 66 1
38 66 2
39 66 1
41 66 4
42 66 2
43 66 3
44 66 3
45 66 4
47 66 4
48 66 3
49 66 4
50 66 3
51 66 2
52 66 1
53 66 2
54 66 1
4 67 1
8 67 1
17 67 11
18 67 20
19 67 15
20 67 12
21 67 15
22 67 12
23 67 11
24 67 15
25 67 2
26 67 1
27 67 1
28 67 5
29 67 3
30 67 3
31 67 3
32 67 4
33 67 1
34 67 2
35 67 4
36 67 1
37 67 6
39 67 2
40 67 4
41 67 1
42 67 3
43 67 1
44 67 5
45 67 2
46 67 5
47 67 4
48 67 1
49 67 4
50 67 2
51 67 2
52 67 2
53 67 5
54 67 2
15 68 1
17 68 13
18 68 15
19 68 18
20 68 13
21 68 14
22 68 22
23 68 6
24 68 12
25 68 1
26 68 5
27 68 2
28 68 4
29 68 2
30 68 2
31 68 2
32 68 1
33 68 4
34 68 2
35 68 1
36 68 5
37 68 4
38 68 1
39 68 1
40 68 1
41 68 4
42 68 7
43 68 1
44 68 2
45 68 2
47 68 3
48 68 2
49 68 2
51 68 1
52 68 3
53 68 4
54 68 1
8 69 1
10 69 1
14 69 1
17 69 11
18 69 20
19 69 12
20 69 16
21 69 11
22 69 18
23 69 23
24 69 11
25 69 1
26 69 5
27 69 4
29 69 2
30 69 3
31 69 2
32 69 4
34 69 2
35 69 3
36 69 4
38 69 2
39 69 2
40 69 2
41 69 4
42 69 5
44 69 1
45 69 3
47 69 2
48 69 4
49 69 4
50 69 3
51 69 3
52 69 4
53 69 4
54 69 2
57 69 1
13 70 1
15 70 1
16 70 1
17 70 14
18 70 21
19 70 18
20 70 14
21 70 18
22 70 12
23 70 18
24 70 9
25 70 2
26 70 1
27 70 5
28 70 3
29 70 5
33 70 5
34 70 4
35 70 5
36 70 1
37 70 1
38 70 2
39 70 4
41 70 1
42 70 3
43 70 1
44 70 2
45 70 5
46 70 2
47 70 6
48 70 3
49 70 2
50 70 2
51 70 1
52 70 1
53 70 3
54 70 5
57 70 1
5 71 1
6 71 1
13 71 1
17 71 14
18 71 12
19 71 20
20 71 15
21 71 12
22 71 17
23 71 19
24 71 18
25 71 3
26 71 1
27 71 3
28 71 3
29 71 4
30 71 1
31 71 1
33 71 2
35 71 3
37 71 3
38 71 6
39 71 2
40 71 4
41 71 4
42 71 5
44 71 1
45 71 4
46 71 1
47 71 6
48 71 3
49 71 4
50 71 2
51 71 2
52 71 4
53 71 4
54 71 4
1 72 1
12 72 1
17 72 14
18 72 13
19 72 16
20 72 20
21 72 10
22 72 14
23 72 11
24 72 15
25 72 4
26 72 2
27 72 6
28 72 3
29 72 1
30 72 2
33 72 3
34 72 5
35 72 1
36 72 2
37 72 4
38 72 1
39 72 5
40 72 1
41 72 4
42 72 3
43 72 5
44 72 3
45 72 2
46 72 2
47 72 3
48 72 2
49 72 4
50 72 4
53 72 4
54 72 2
2 73 1
10 73 1
17 73 14
18 73 17
19 73 12
20 73 18
21 73 14
22 73 12
23 73 15
24 73 15
25 73 2
26 73 2
27 73 2
28 73 4
29 73 1
30 73 1
31 73 2
32 73 2
33 73 4
34 73 4
35 73 1
36 73 3
37 73 10
38 73 4
39 73 1
40 73 1
41 73 2
42 73 2
43 73 1
44 73 3
45 73 1
46 73 1
47 73 2
48 73 1
49 73 5
50 73 6
51 73 1
52 73 2
53 73 4
54 73 5
55 73 1
1 74 1
8 74 1
11 74 1
14 74 1
17 74 9
18 74 16
19 74 10
20 74 14
21 74 18
22 74 16
23 74 10
24 74 15
25 74 3
26 74 4
27 74 2
28 74 3
29 74 2
30 74 2
31 74 2
32 74 1
33 74 2
34 74 1
35 74 1
36 74 4
37 74 2
38 74 1
39 74 2
40 74 3
41 74 1
42 74 3
44 74 1
45 74 2
47 74 2
48 74 4
49 74 2
50 74 4
51 74 4
52 74 4
53 74 1
54 74 5
6 75 1
12 75 1
16 75 1
17 75 14
18 75 5
19 75 11
20 75 19
21 75 20
22 75 13
23 75 15
24 75 15
25 75 2
26 75 2
27 75 3
28 75 2
29 75 3
30 75 4
32 75 1
33 75 2
34 75 5
35 75 2
36 75 2
37 75 2
38 75 3
39 75 2
40 75 4
41 75 4
42 75 1
43 75 2
44 75 9
45 75 1
46 75 1
47 75 1
48 75 2
49 75 7
51 75 2
52 75 2
53 75 2
54 75 4
57 75 1
17 76 9
18 76 24
19 76 18
20 76 7
21 76 12
22 76 18
23 76 9
24 76 20
25 76 2
26 76 2
27 76 2
28 76 3
30 76 3
31 76 1
32 76 4
34 76 1
35 76 1
36 76 3
37 76 1
38 76 3
39 76 1
40 76 3
41 76 2
42 76 3
43 76 2
44 76 3
45 76 3
46 76 2
47 76 1
48 76 2
49 76 1
50 76 3
51 76 3
52 76 2
53 76 3
54 76 1
55 76 1
7 77 1
17 77 16
18 77 11
19 77 21
20 77 12
21 77 20
22 77 11
23 77 15
24 77 24
25 77 6
26 77 2
27 77 1
28 77 1
30 77 1
31 77 3
33 77 2
34 77 3
35 77 1
36 77 2
37 77 5
38 77 2
39 77 1
40 77 4
41 77 2
42 77 3
43 77 3
44 77 4
45 77 2
46 77 3
47 77 1
48 77 2
49 77 3
50 77 3
51 77 5
52 77 2
53 77 3
54 77 1
7 78 1
17 78 12
18 78 15
19 78 15
20 78 10
21 78 14
22 78 17
23 78 17
24 78 16
25 78 1
26 78 4
27 78 1
28 78 4
29 78 2
30 78 4
31 78 4
32 78 2
33 78 2
34 78 1
35 78 3
36 78 2
37 78 3
38 78 3
39 78 5
40 78 2
41 78 2
42 78 3
43 78 1
44 78 5
45 78 3
46 78 3
47 78 4
48 78 4
49 78 3
50 78 3
51 78 1
52 78 2
53 78 6
54 78 1
55 78 1
17 79 6
18 79 17
19 79 13
20 79 15
21 79 19
22 79 14
23 79 16
24 79 12
25 79 4
27 79 1
28 79 2
29 79 2
30 79 5
31 79 2
32 79 1
33 79 2
34 79 5
35 79 3
36 79 2
37 79 2
38 79 2
39 79 5
41 79 3
42 79 2
43 79 1
44 79 3
45 79 3
46 79 3
47 79 3
48 79 1
49 79 4
50 79 3
51 79 2
52 79 4
53 79 2
54 79 3
56 79 1
1 80 1
12 80 1
17 80 15
18 80 15
19 80 15
20 80 16
21 80 10
22 80 15
23 80 13
24 80 12
25 80 2
26 80 1
27 80 2
28 80 3
29 80 3
30 80 5
31 80 2
32 80 3
33 80 5
34 80 3
35 80 3
36 80 1
37 80 5
38 80 3
39 80 2
40 80 1
41 80 1
42 80 5
43 80 5
44 80 1
45 80 2
46 80 6
47 80 4
48 80 1
49 80 1
50 80 2
51 80 3
52 80 2
53 80 4
54 80 3
3 81 1
5 81 1
10 81 1
15 81 1
17 81 16
18 81 7
19 81 18
20 81 21
21 81 13
22 81 13
23 81 11
24 81 15
25 81 4
26 81 2
27 81 1
28 81 2
29 81 2
30 81 3
31 81 3
32 81 1
33 81 4
34 81 2
35 81 1
36 81 4
37 81 1
38 81 5
39 81 4
41 81 1
42 81 2
43 81 2
44 81 3
45 81 4
46 81 2
47 81 3
48 81 3
49 81 5
50 81 2
51 81 2
52 81 4
53 81 2
54 81 3
12 82 1
17 82 12
18 82 23
19 82 13
20 82 19
21 82 12
22 82 19
23 82 13
24 82 10
25 82 4
26 82 4
28 82 4
29 82 2
30 82 2
31 82 1
32 82 1
33 82 1
35 82 1
36 82 3
37 82 1
38 82 2
39 82 2
40 82 2
41 82 5
42 82 1
43 82 4
44 82 1
45 82 4
46 82 3
47 82 3
48 82 2
49 82 1
50 82 4
51 82 1
52 82 2
53 82 1
54 82 1
2 83 1
11 83 1
17 83 12
18 83 12
19 83 11
20 83 17
21 83 17
22 83 18
23 83 23
24 83 14
25 83 5
27 83 1
28 83 4
29 83 6
30 83 5
31 83 2
32 83 4
33 83 5
35 83 4
36 83 4
37 83 2
38 83 3
39 83 1
40 83 2
41 83 1
42 83 4
43 83 4
44 83 2
45 83 3
46 83 4
47 83 2
48 83 3
49 83 1
50 83 4
51 83 2
52 83 3
53 83 3
54 83 2
2 84 1
9 84 2
12 84 1
13 84 1
17 84 15
18 84 6
19 84 13
20 84 14
21 84 14
22 84 9
23 84 16
24 84 14
25 84 1
26 84 2
27 84 3
28 84 2
29 84 3
30 84 2
31 84 1
32 84 2
34 84 3
36 84 1
37 84 1
39 84 5
41 84 1
42 84 3
43 84 4
44 84 2
45 84 4
46 84 4
47 84 4
48 84 1
49 84 6
51 84 1
52 84 3
53 84 2
54 84 2
55 84 1
56 84 1
3 85 1
8 85 1
9 85 1
14 85 1
17 85 10
18 85 16
19 85 13
20 85 12
21 85 20
22 85 9
23 85 16
24 85 20
25 85 3
26 85 4
27 85 1
30 85 4
31 85 3
32 85 4
33 85 3
34 85 5
35 85 3
36 85 5
37 85 3
38 85 5
39 85 3
40 85 2
41 85 1
42 85 1
43 85 2
44 85 4
45 85 4
46 85 2
47 85 2
48 85 3
49 85 4
50 85 2
51 85 1
52 85 1
53 85 2
54 85 2
57 85 1
2 86 1
3 86 1
6 86 1
9 86 1
17 86 18
18 86 17
19 86 14
20 86 17
21 86 12
22 86 24
23 86 14
24 86 13
25 86 2
26 86 2
27 86 1
28 86 1
29 86 2
30 86 2
31 86 2
32 86 3
33 86 2
34 86 4
35 86 3
36 86 2
37 86 4
38 86 3
40 86 2
41 86 3
42 86 1
43 86 5
44 86 2
45 86 6
46 86 2
47 86 3
49 86 4
50 86 2
51 86 5
52 86 2
53 86 5
54 86 4
56 86 1
7 87 1
8 87 1
11 87 1
17 87 14
18 87 25
19 87 13
20 87 14
21 87 7
22 87 10
23 87 17
24 87 17
26 87 4
27 87 2
28 87 5
29 87 1
30 87 1
32 87 4
33 87 4
34 87 3
35 87 4
36 87 5
37 87 5
38 87 2
39 87 4
40 87 1
41 87 1
42 87 4
43 87 1
44 87 4
45 87 1
46 87 3
47 87 2
48 87 7
50 87 2
51 87 3
52 87 3
53 87 1
55 87 1
9 88 1
12 88 1
17 88 16
18 88 17
19 88 13
20 88 14
21 88 9
22 88 18
23 88 17
24 88 11
25 88 3
26 88 2
28 88 4
29 88 4
30 88 1
31 88 1
33 88 5
34 88 1
35 88 3
36 88 8
37 88 5
39 88 7
40 88 2
41 88 2
42 88 1
43 88 1
44 88 4
45 88 3
46 88 2
47 88 4
48 88 2
49 88 5
50 88 1
51 88 2
52 88 4
53 88 1
54 88 1
13 89 1
17 89 15
18 89 15
19 89 12
20 89 14
21 89 11
22 89 8
23 89 6
24 89 15
25 89 2
26 89 6
27 89 5
28 89 1
30 89 2
31 89 5
33 89 2
34 89 1
36 89 2
37 89 2
40 89 1
41 89 3
42 89 3
43 89 3
44 89 1
45 89 2
46 89 3
47 89 1
48 89 1
49 89 3
50 89 4
51 89 2
52 89 3
53 89 5
54 89 3
55 89 1
17 90 16
18 90 10
19 90 16
20 90 15
21 90 11
22 90 16
23 90 14
24 90 16
25 90 3
26 90 2
27 90 2
28 90 5
29 90 2
30 90 3
31 90 3
32 90 1
33 90 1
35 90 4
36 90 1
37 90 4
39 90 4
41 90 3
42 90 3
43 90 1
44 90 4
45 90 3
46 90 4
47 90 1
48 90 6
49 90 2
50 90 2
51 90 1
52 90 1
53 90 7
54 90 1
56 90 2
